NAME 
ROWS
 N  OBJ
 L  R0      
 L  R1      
 E  R2      
 E  R3      
 E  R4      
 E  R5      
 E  R6      
 E  R7      
 E  R8      
 E  R9      
 E  R10     
 E  R11     
 E  R12     
 E  R13     
 E  R14     
 E  R15     
 E  R16     
COLUMNS
    MARKER    'MARKER'                 'INTORG'
    I0(8)     OBJ       -165
    I0(8)     R0        -10
    I0(8)     R1        92
    I0(8)     R3        10
    I0(8)     R4        -1
    I0(8)     R5        4
    I0(8)     R6        15
    I0(8)     R7        2
    I0(8)     R16       1
    I1(10)    OBJ       32
    I1(10)    R0        33
    I1(10)    R1        -112
    I1(10)    R2        8
    I1(10)    R3        10
    I1(10)    R4        18
    I1(10)    R5        8
    I1(10)    R6        8
    I1(10)    R7        5
    I1(10)    R8        2
    I1(10)    R16       1
    I2(9)     OBJ       7
    I2(9)     R0        176
    I2(9)     R1        133
    I2(9)     R2        11
    I2(9)     R3        10
    I2(9)     R4        19
    I2(9)     R6        6
    I2(9)     R7        19
    I2(9)     R8        16
    I2(9)     R16       1
    I3(8)     OBJ       -184
    I3(8)     R0        -80
    I3(8)     R1        16
    I3(8)     R2        13
    I3(8)     R4        8
    I3(8)     R5        8
    I3(8)     R6        1
    I3(8)     R7        18
    I3(8)     R16       1
    I4(8)     OBJ       -130
    I4(8)     R0        196
    I4(8)     R1        71
    I4(8)     R2        3
    I4(8)     R3        7
    I4(8)     R6        2
    I4(8)     R7        9
    I4(8)     R8        -1
    I4(8)     R16       1
    I5(8)     OBJ       -141
    I5(8)     R0        79
    I5(8)     R1        -168
    I5(8)     R2        19
    I5(8)     R3        6
    I5(8)     R4        4
    I5(8)     R6        8
    I5(8)     R7        13
    I5(8)     R16       1
    I6(9)     OBJ       -128
    I6(9)     R0        -85
    I6(9)     R1        69
    I6(9)     R2        17
    I6(9)     R3        18
    I6(9)     R4        6
    I6(9)     R5        19
    I6(9)     R7        2
    I6(9)     R8        -1
    I6(9)     R16       1
    MARKER    'MARKER'                 'INTEND'
    C7(13)    OBJ       3
    C7(13)    R0        -4
    C7(13)    R1        -9
    C7(13)    R2        7
    C7(13)    R3        3
    C7(13)    R5        18
    C7(13)    R6        13
    C7(13)    R7        6
    C7(13)    R8        4
    C7(13)    R9        15
    C7(13)    R10       16
    C7(13)    R13       8
    C7(13)    R14       1
    C7(13)    R15       15
    C8(11)    OBJ       8
    C8(11)    R0        5
    C8(11)    R3        5
    C8(11)    R4        13
    C8(11)    R5        10
    C8(11)    R6        2
    C8(11)    R7        2
    C8(11)    R8        8
    C8(11)    R9        2
    C8(11)    R10       11
    C8(11)    R11       7
    C8(11)    R12       10
    C9(12)    OBJ       3
    C9(12)    R0        -10
    C9(12)    R1        -1
    C9(12)    R2        6
    C9(12)    R3        17
    C9(12)    R5        14
    C9(12)    R6        15
    C9(12)    R7        5
    C9(12)    R8        10
    C9(12)    R9        2
    C9(12)    R12       11
    C9(12)    R14       3
    C9(12)    R15       17
    C10(14)   OBJ       -6
    C10(14)   R0        1
    C10(14)   R1        -2
    C10(14)   R2        17
    C10(14)   R3        2
    C10(14)   R4        17
    C10(14)   R5        14
    C10(14)   R6        3
    C10(14)   R7        12
    C10(14)   R9        13
    C10(14)   R11       -1
    C10(14)   R12       16
    C10(14)   R13       8
    C10(14)   R14       2
    C10(14)   R15       9
    C11(14)   OBJ       -1
    C11(14)   R0        8
    C11(14)   R1        -7
    C11(14)   R2        13
    C11(14)   R3        7
    C11(14)   R4        6
    C11(14)   R5        7
    C11(14)   R7        16
    C11(14)   R8        1
    C11(14)   R9        14
    C11(14)   R11       16
    C11(14)   R12       13
    C11(14)   R13       -1
    C11(14)   R14       -1
    C11(14)   R15       8
    C12(13)   OBJ       4
    C12(13)   R0        9
    C12(13)   R1        -9
    C12(13)   R2        18
    C12(13)   R3        2
    C12(13)   R4        11
    C12(13)   R7        15
    C12(13)   R8        15
    C12(13)   R9        9
    C12(13)   R10       2
    C12(13)   R11       2
    C12(13)   R12       15
    C12(13)   R14       2
    C12(13)   R15       4
    C13(12)   OBJ       7
    C13(12)   R0        9
    C13(12)   R3        5
    C13(12)   R4        13
    C13(12)   R5        18
    C13(12)   R6        13
    C13(12)   R8        13
    C13(12)   R9        11
    C13(12)   R11       8
    C13(12)   R12       6
    C13(12)   R13       3
    C13(12)   R14       19
    C13(12)   R15       17
    C14(14)   OBJ       4
    C14(14)   R0        3
    C14(14)   R1        -2
    C14(14)   R2        14
    C14(14)   R3        6
    C14(14)   R4        9
    C14(14)   R5        8
    C14(14)   R8        19
    C14(14)   R9        9
    C14(14)   R10       -1
    C14(14)   R11       7
    C14(14)   R12       13
    C14(14)   R13       13
    C14(14)   R14       15
    C14(14)   R15       8
    C15(1)    R2        1
    C16(1)    R3        1
    C17(1)    R4        1
    C18(1)    R5        1
    C19(1)    R6        1
    C20(1)    R7        1
    C21(1)    R8        1
    C22(1)    R9        1
    C23(1)    R10       1
    C24(1)    R11       1
    C25(1)    R12       1
    C26(1)    R13       1
    C27(1)    R14       1
    C28(1)    R15       1
    C29(1)    R16       1
RHS
    RHS1      R0        -8.7142857142857139e+01
    RHS1      R1        1.0228571428571428e+02
    RHS1      R2        86
    RHS1      R3        95
    RHS1      R4        94
    RHS1      R5        52
    RHS1      R6        67
    RHS1      R7        70
    RHS1      R8        86
    RHS1      R9        69
    RHS1      R10       76
    RHS1      R11       67
    RHS1      R12       90
    RHS1      R13       67
    RHS1      R14       61
    RHS1      R15       83
    RHS1      R16       2
BOUNDS
 UP BND1      I0(8)     1
 UP BND1      I1(10)    1
 UP BND1      I2(9)     1
 UP BND1      I3(8)     1
 UP BND1      I4(8)     1
 UP BND1      I5(8)     1
 UP BND1      I6(9)     1
ENDATA
